#######################################
### Exact MIP solver for the HHCRSP ###
#######################################
-- Instance file: new-instances/HHCRSP_75_15_71_1.6_R_C.txt
-- Max threads: 4
-- Time limit: 999999 seconds
-- Use initial solution: No
Trivial flow violations prevented generating 19216 variables.
Model exported.
Version identifier: 20.1.0.0 | 2020-11-10 | 9bedb6d68
CPXPARAM_Threads                                 4
CPXPARAM_TimeLimit                               999999
Parallel mode: deterministic, using up to 4 threads for concurrent optimization:
 * Starting dual Simplex on 1 thread...
 * Starting Barrier on 3 threads...
Tried aggregator 1 time.
LP Presolve eliminated 2940 rows and 733 columns.
Reduced LP has 20984 rows, 20175 columns, and 207470 nonzeros.
Presolve time = 0.10 sec. (56.74 ticks)
Symmetry aggregator did 18979 additional substitutions.
Initializing dual steep norms . . .

Iteration log . . .
Iteration:     1   Dual objective     =             0.333333

Dual crossover.
  Dual:  Fixing 158 variables.
      157 DMoves:  Infeasibility  5.42899161e-14  Objective  1.08333333e+02
        0 DMoves:  Infeasibility  3.58047027e-14  Objective  1.08333333e+02
  Dual:  Pushed 6, exchanged 152.
  Primal:  Fixing 57 variables.
       56 PMoves:  Infeasibility  1.66533454e-16  Objective  1.08333333e+02
        0 PMoves:  Infeasibility  3.33066907e-16  Objective  1.08333333e+02
  Primal:  Pushed 26, exchanged 31.

Dual simplex solved model.


Solution status from MIP model:
-- Processing time: 0.185 sec.
-- Memory used: 83.9619 MB
-- Best bound: inf
-- Obj value: 108.333
-- Gap: inf%
-- Total distance: 325
-- Total tardiness: 0
-- Largest tardiness: 0
